(define-fun T ((%init Bool) ($phi$0 Real) ($roll_rate$0 Real) ($roll_angle$0 Real) ($abs_roll_rate$0 Real) ($AP004a$0 Bool) ($AP000$0 Bool) ($AP004b$0 Bool) ($AP005$0 Bool) ($AP006$0 Bool) ($abs_real~2.x$0 Real) ($abs_real~2.y$0 Real) ($H~0.X$0 Bool) ($H~0.Y$0 Bool) ($phi$1 Real) ($roll_rate$1 Real) ($roll_angle$1 Real) ($abs_roll_rate$1 Real) ($AP004a$1 Bool) ($AP000$1 Bool) ($AP004b$1 Bool) ($AP005$1 Bool) ($AP006$1 Bool) ($abs_real~2.x$1 Real) ($abs_real~2.y$1 Real) ($H~0.X$1 Bool) ($H~0.Y$1 Bool)) Bool (and (= $roll_angle$1 $phi$1) (= $roll_rate$1 (- $roll_angle$0 $roll_angle$1)) (= $abs_roll_rate$1 $abs_real~2.y$1) (= $AP004a$1 true) (= $AP000$1 true) (= $AP004b$1 true) (= $AP005$1 $H~0.Y$1) (= $AP006$1 true) (= $abs_real~2.x$1 $roll_rate$1) (= $abs_real~2.y$1 (ite (>= $abs_real~2.x$1 (/ 0 10)) $abs_real~2.x$1 (- 0 $abs_real~2.x$1))) (= $H~0.X$1 (<= $abs_roll_rate$1 (/ 66 10))) (= $H~0.Y$1 (ite %init $H~0.X$1 (and $H~0.X$1 $H~0.Y$0)))))
(declare-fun %init () Bool)
(declare-fun $phi$~1 () Real)
(declare-fun $roll_rate$~1 () Real)
(declare-fun $roll_angle$~1 () Real)
(declare-fun $abs_roll_rate$~1 () Real)
(declare-fun $AP004a$~1 () Bool)
(declare-fun $AP000$~1 () Bool)
(declare-fun $AP004b$~1 () Bool)
(declare-fun $AP005$~1 () Bool)
(declare-fun $AP006$~1 () Bool)
(declare-fun $abs_real~2.x$~1 () Real)
(declare-fun $abs_real~2.y$~1 () Real)
(declare-fun $H~0.X$~1 () Bool)
(declare-fun $H~0.Y$~1 () Bool)
(declare-fun $phi$0 () Real)
(declare-fun $roll_rate$2 () Real)
(declare-fun $roll_angle$2 () Real)
(declare-fun $abs_roll_rate$2 () Real)
(declare-fun $AP004a$2 () Bool)
(declare-fun $AP000$2 () Bool)
(declare-fun $AP004b$2 () Bool)
(declare-fun $AP005$2 () Bool)
(declare-fun $AP006$2 () Bool)
(declare-fun $abs_real~2.x$2 () Real)
(declare-fun $abs_real~2.y$2 () Real)
(declare-fun $H~0.X$2 () Bool)
(declare-fun $H~0.Y$2 () Bool)
(assert (and (T %init $phi$~1 $roll_rate$~1 $roll_angle$~1 $abs_roll_rate$~1 $AP004a$~1 $AP000$~1 $AP004b$~1 $AP005$~1 $AP006$~1 $abs_real~2.x$~1 $abs_real~2.y$~1 $H~0.X$~1 $H~0.Y$~1 $phi$0 $roll_rate$2 $roll_angle$2 $abs_roll_rate$2 $AP004a$2 $AP000$2 $AP004b$2 $AP005$2 $AP006$2 $abs_real~2.x$2 $abs_real~2.y$2 $H~0.X$2 $H~0.Y$2) (and $AP004a$2 $AP000$2 $AP004b$2 $AP005$2 $AP006$2)))
